p tw 40 84
0 1
0 21
0 10
0 35
1 18
1 17
1 29
1 25
2 3
2 4
2 30
2 33
2 39
2 37
3 12
3 37
3 18
4 5
4 15
4 22
4 19
4 37
5 6
5 19
5 25
5 28
5 17
5 32
6 17
6 7
6 14
7 8
7 20
7 15
8 33
8 34
8 24
9 10
9 30
9 31
9 38
10 20
10 23
11 12
11 38
11 14
11 23
12 25
12 19
12 29
13 14
13 25
13 24
13 23
14 22
14 35
14 34
14 24
14 25
15 16
15 20
15 31
16 30
16 38
16 34
16 28
17 36
17 37
18 30
19 29
19 28
20 30
21 32
22 28
23 24
23 32
23 37
24 34
24 33
26 27
29 31
32 36
33 34
35 36
